(push 1)
(assert (not (=> (and randomness-mapping-GBLG (= state-length-left-new (return-Left-gate-GBLG-state-length return-left-gate-GBLG)
)
 (= state-length-right-new (return-Right-simgate-GBLG-state-length return-right-simgate-GBLG)
)
 (invariant-GBLG state-left state-right state-length-left-old state-length-right-old return-left-gate-GBLG return-right-simgate-GBLG arg-GBLG-h arg-GBLG-l arg-GBLG-r arg-GBLG-op arg-GBLG-j)
)
 (lemma1-keys state-left state-right state-length-left-old state-length-right-old return-left-gate-GBLG return-right-simgate-GBLG arg-GBLG-h arg-GBLG-l arg-GBLG-r arg-GBLG-op arg-GBLG-j)
)
)
)
(check-sat)
